345 5
10 10 10 10 10 

0 0 0 0 0 0 5 2 14 26 38 50 
0 0 0 0 0 0 4 3 4 6 9 
10 0 0 1 0 0 3 12 5 69 
2 0 0 6 0 0 2 12 7 
6 0 0 9 0 0 1 7 
2 0 0 10 0 0 1 7 
3 0 0 10 0 0 2 10 8 
10 0 0 7 0 0 1 11 
3 0 0 9 0 0 1 10 
2 0 0 9 0 0 1 13 
8 0 0 8 0 0 1 13 
4 0 0 6 0 0 1 13 
0 0 0 0 0 0 1 62 
0 0 0 0 0 0 3 15 18 115 
6 4 0 0 0 0 4 24 23 17 16 
6 10 0 0 0 0 2 22 19 
2 7 0 0 0 0 2 22 20 
4 9 0 0 0 0 1 19 
8 7 0 0 0 0 1 20 
5 10 0 0 0 0 1 21 
1 10 0 0 0 0 1 25 
6 5 0 0 0 0 1 25 
7 3 0 0 0 0 1 25 
8 10 0 0 0 0 1 25 
0 0 0 0 0 0 1 62 
0 0 0 0 0 0 2 27 29 
4 0 0 4 0 0 2 31 28 
7 0 0 5 0 0 3 36 33 30 
2 0 0 10 0 0 3 36 35 34 
9 0 0 8 0 0 2 35 32 
6 0 0 7 0 0 2 35 34 
8 0 0 9 0 0 2 34 163 
10 0 0 9 0 0 1 34 
9 0 0 6 0 0 1 37 
6 0 0 7 0 0 1 37 
9 0 0 10 0 0 1 37 
0 0 0 0 0 0 1 62 
0 0 0 0 0 0 3 39 41 44 
5 0 0 2 0 0 1 40 
8 0 0 10 0 0 3 43 42 176 
1 0 0 8 0 0 3 48 47 45 
8 0 0 10 0 0 3 48 47 46 
10 0 0 10 0 0 2 47 45 
8 0 0 9 0 0 2 47 45 
4 0 0 9 0 0 1 46 
9 0 0 2 0 0 1 49 
9 0 0 7 0 0 1 49 
4 0 0 8 0 0 1 49 
0 0 0 0 0 0 1 62 
0 0 0 0 0 0 4 51 52 59 60 
1 0 0 0 4 0 2 58 53 
9 0 0 0 10 0 2 57 55 
7 0 0 0 7 0 1 54 
6 0 0 0 10 0 1 55 
1 0 0 0 7 0 1 56 
2 0 0 0 9 0 2 61 78 
4 0 0 0 5 0 1 61 
6 0 0 0 10 0 1 61 
5 0 0 0 5 0 1 61 
9 0 0 0 8 0 1 61 
0 0 0 0 0 0 1 62 
0 0 0 0 0 0 5 63 75 87 99 111 
0 0 0 0 0 0 3 64 66 67 
8 0 0 0 0 2 2 68 65 
7 0 0 0 0 10 2 72 69 
10 0 0 0 0 7 3 73 72 71 
6 0 0 0 0 9 1 68 
3 0 0 0 0 9 1 70 
10 0 0 0 0 7 1 70 
7 0 0 0 0 8 1 71 
3 0 0 0 0 7 1 74 
10 0 0 0 0 6 2 74 306 
4 0 0 0 0 10 1 74 
0 0 0 0 0 0 1 123 
0 0 0 0 0 0 4 76 77 79 81 
8 0 0 0 0 4 2 85 78 
6 0 0 0 0 6 3 85 80 146 
2 0 0 0 0 6 1 80 
6 0 0 0 0 7 1 80 
3 0 0 0 0 7 2 84 82 
6 0 0 0 0 10 2 84 82 
3 0 0 0 0 10 1 83 
6 0 0 0 0 7 1 86 
10 0 0 0 0 8 1 86 
4 0 0 0 0 10 1 86 
0 0 0 0 0 0 1 123 
0 0 0 0 0 0 2 88 92 
3 0 0 4 0 0 3 94 91 89 
1 0 0 5 0 0 2 97 90 
6 0 0 8 0 0 2 96 93 
4 0 0 5 0 0 2 96 95 
6 0 0 10 0 0 2 97 96 
3 0 0 5 0 0 1 95 
5 0 0 9 0 0 1 95 
1 0 0 9 0 0 2 98 260 
3 0 0 10 0 0 1 98 
4 0 0 10 0 0 1 98 
0 0 0 0 0 0 1 123 
0 0 0 0 0 0 4 100 104 108 109 
9 0 0 0 3 0 3 107 106 101 
6 0 0 0 5 0 1 102 
4 0 0 0 9 0 1 103 
6 0 0 0 4 0 1 105 
10 0 0 0 7 0 1 106 
5 0 0 0 10 0 2 110 287 
2 0 0 0 10 0 1 110 
10 0 0 0 9 0 1 110 
5 0 0 0 8 0 1 110 
8 0 0 0 10 0 1 110 
0 0 0 0 0 0 1 123 
0 0 0 0 0 0 1 112 
2 0 0 5 0 0 2 114 113 
9 0 0 5 0 0 2 116 115 
6 0 0 10 0 0 2 116 115 
8 0 0 9 0 0 3 121 119 117 
6 0 0 7 0 0 3 121 118 117 
3 0 0 10 0 0 2 120 289 
8 0 0 10 0 0 1 120 
8 0 0 5 0 0 1 120 
9 0 0 7 0 0 1 122 
10 0 0 7 0 0 1 122 
0 0 0 0 0 0 1 123 
0 0 0 0 0 0 5 124 136 148 160 172 
0 0 0 0 0 0 2 125 129 
5 0 0 0 0 2 3 127 126 336 
7 0 0 0 0 9 3 134 131 130 
10 0 0 0 0 7 1 128 
9 0 0 0 0 8 3 134 133 131 
4 0 0 0 0 10 3 134 133 131 
7 0 0 0 0 10 2 133 132 
3 0 0 0 0 9 1 132 
5 0 0 0 0 8 1 135 
9 0 0 0 0 7 1 135 
3 0 0 0 0 5 1 135 
0 0 0 0 0 0 1 184 
0 0 0 0 0 0 1 137 
8 0 7 0 0 0 2 146 138 
10 0 5 0 0 0 3 145 141 139 
1 0 7 0 0 0 3 144 143 140 
5 0 3 0 0 0 1 142 
2 0 10 0 0 0 1 142 
6 0 8 0 0 0 1 147 
4 0 10 0 0 0 1 147 
6 0 5 0 0 0 1 147 
5 0 10 0 0 0 2 147 316 
2 0 10 0 0 0 1 147 
0 0 0 0 0 0 1 184 
0 0 0 0 0 0 1 149 
3 2 0 0 0 0 2 151 150 
7 3 0 0 0 0 3 155 153 152 
1 6 0 0 0 0 3 155 153 152 
3 9 0 0 0 0 3 158 157 154 
7 8 0 0 0 0 1 154 
4 9 0 0 0 0 1 156 
2 9 0 0 0 0 1 156 
7 9 0 0 0 0 2 159 239 
4 10 0 0 0 0 1 159 
4 10 0 0 0 0 1 159 
0 0 0 0 0 0 1 184 
0 0 0 0 0 0 1 161 
6 0 0 1 0 0 2 165 162 
6 0 0 5 0 0 3 164 163 232 
6 0 0 10 0 0 3 169 167 166 
6 0 0 10 0 0 3 170 169 168 
8 0 0 9 0 0 2 169 166 
5 0 0 10 0 0 1 168 
3 0 0 10 0 0 1 168 
4 0 0 4 0 0 1 171 
6 0 0 9 0 0 1 171 
7 0 0 7 0 0 1 171 
0 0 0 0 0 0 1 184 
0 0 0 0 0 0 2 173 176 
10 0 0 0 0 3 3 182 178 174 
8 0 0 0 0 10 1 175 
5 0 0 0 0 6 3 179 177 250 
10 0 0 0 0 6 2 179 177 
2 0 0 0 0 10 2 181 180 
3 0 0 0 0 9 1 179 
10 0 0 0 0 6 1 183 
7 0 0 0 0 9 1 183 
10 0 0 0 0 10 1 183 
1 0 0 0 0 6 1 183 
0 0 0 0 0 0 1 184 
0 0 0 0 0 0 5 185 207 229 241 263 
0 0 0 0 0 0 4 186 187 192 193 
7 0 5 0 3 0 2 194 188 
8 0 6 0 9 0 4 197 196 194 190 
10 0 8 0 5 0 1 189 
7 0 10 0 7 0 3 205 196 190 
6 0 5 0 5 0 1 191 
10 0 7 0 9 0 2 198 195 
8 0 9 0 6 0 2 204 197 
3 0 10 0 10 0 2 198 196 
1 0 5 0 10 0 1 195 
1 0 10 0 8 0 2 204 199 
9 0 10 0 9 0 2 204 199 
8 0 10 0 8 0 1 198 
7 0 4 0 10 0 1 199 
7 0 10 0 6 0 2 203 200 
6 0 10 0 10 0 1 201 
9 0 6 0 7 0 1 202 
7 0 6 0 10 0 1 206 
9 0 9 0 3 0 1 206 
2 0 3 0 5 0 2 206 289 
1 0 7 0 10 0 1 206 
0 0 0 0 0 0 1 345 
0 0 0 0 0 0 1 208 
9 5 1 0 0 0 3 227 226 209 
7 5 8 0 0 0 2 225 210 
7 9 9 0 0 0 3 224 223 211 
5 5 9 0 0 0 3 222 221 212 
10 9 10 0 0 0 4 220 219 213 247 
7 6 6 0 0 0 2 218 214 
5 10 8 0 0 0 1 215 
10 10 6 0 0 0 1 216 
2 9 7 0 0 0 1 217 
9 4 9 0 0 0 1 228 
6 9 6 0 0 0 1 228 
5 6 10 0 0 0 1 228 
7 7 8 0 0 0 1 228 
6 10 7 0 0 0 1 228 
1 7 6 0 0 0 1 228 
5 5 10 0 0 0 1 228 
6 10 5 0 0 0 1 228 
8 10 10 0 0 0 1 228 
1 5 7 0 0 0 1 228 
8 9 8 0 0 0 1 228 
0 0 0 0 0 0 1 345 
0 0 0 0 0 0 1 230 
8 0 0 4 0 0 2 234 231 
6 0 0 10 0 0 2 233 232 
2 0 0 4 0 0 3 239 237 235 
10 0 0 7 0 0 3 239 236 235 
1 0 0 9 0 0 2 239 235 
4 0 0 8 0 0 1 238 
7 0 0 7 0 0 2 238 248 
8 0 0 9 0 0 1 238 
4 0 0 7 0 0 1 240 
8 0 0 10 0 0 1 240 
0 0 0 0 0 0 5 285 297 309 321 333 
0 0 0 0 0 0 10 242 249 254 255 256 257 258 259 260 261 
5 0 3 0 0 3 1 243 
5 0 5 0 0 3 2 253 244 
5 0 9 0 0 10 1 245 
7 0 10 0 0 10 1 246 
8 0 10 0 0 6 1 247 
4 0 6 0 0 10 1 248 
2 0 9 0 0 6 1 250 
7 0 10 0 0 10 1 250 
9 0 8 0 0 10 1 251 
7 0 8 0 0 9 1 252 
9 0 6 0 0 8 1 262 
7 0 4 0 0 8 1 262 
9 0 10 0 0 9 1 262 
1 0 6 0 0 8 1 262 
6 0 9 0 0 5 1 262 
7 0 4 0 0 10 1 262 
6 0 10 0 0 5 1 262 
3 0 7 0 0 6 1 262 
1 0 9 0 0 7 1 262 
2 0 7 0 0 7 1 262 
0 0 0 0 0 0 1 345 
0 0 0 0 0 0 3 264 266 271 
7 0 0 6 0 4 1 265 
5 0 0 6 0 6 3 283 276 267 
4 0 0 4 0 4 2 276 267 
5 0 0 6 0 7 4 282 281 280 268 
10 0 0 8 0 5 2 275 269 
4 0 0 3 0 6 2 279 270 
5 0 0 5 0 8 1 272 
3 0 0 10 0 10 2 278 274 
3 0 0 8 0 9 1 273 
4 0 0 10 0 8 1 274 
3 0 0 6 0 6 1 277 
9 0 0 10 0 8 1 278 
5 0 0 9 0 7 1 280 
3 0 0 10 0 9 1 284 
1 0 0 8 0 8 1 284 
5 0 0 10 0 8 1 284 
1 0 0 5 0 10 1 284 
5 0 0 10 0 10 1 284 
3 0 0 9 0 7 1 284 
2 0 0 7 0 10 1 284 
0 0 0 0 0 0 1 345 
0 0 0 0 0 0 3 286 289 295 
9 0 5 0 0 0 2 291 287 
2 0 4 0 0 0 1 288 
7 0 8 0 0 0 2 292 290 
10 0 4 0 0 0 1 291 
2 0 7 0 0 0 2 294 293 
3 0 10 0 0 0 2 294 293 
5 0 10 0 0 0 1 293 
1 0 8 0 0 0 1 296 
4 0 9 0 0 0 1 296 
7 0 10 0 0 0 1 296 
0 0 0 0 0 0 1 345 
0 0 0 0 0 0 1 298 
1 0 5 0 0 0 2 300 299 
4 0 4 0 0 0 3 304 302 301 
1 0 6 0 0 0 2 304 301 
5 0 9 0 0 0 2 305 303 
2 0 7 0 0 0 2 307 305 
6 0 9 0 0 0 2 307 306 
7 0 8 0 0 0 2 307 306 
3 0 7 0 0 0 1 306 
7 0 10 0 0 0 1 308 
5 0 10 0 0 0 1 308 
0 0 0 0 0 0 1 345 
0 0 0 0 0 0 4 310 311 312 319 
8 3 0 0 0 0 1 313 
5 10 0 0 0 0 1 313 
8 8 0 0 0 0 3 318 316 315 
5 7 0 0 0 0 2 318 314 
2 6 0 0 0 0 1 315 
3 7 0 0 0 0 1 317 
8 10 0 0 0 0 1 317 
10 4 0 0 0 0 1 320 
8 10 0 0 0 0 1 320 
3 10 0 0 0 0 1 320 
0 0 0 0 0 0 1 345 
0 0 0 0 0 0 2 322 325 
5 4 0 0 0 0 1 323 
2 7 0 0 0 0 1 324 
6 4 0 0 0 0 3 329 328 327 
8 10 0 0 0 0 2 328 326 
2 6 0 0 0 0 1 327 
5 10 0 0 0 0 1 330 
5 8 0 0 0 0 1 331 
3 7 0 0 0 0 1 330 
1 9 0 0 0 0 1 332 
2 10 0 0 0 0 1 332 
0 0 0 0 0 0 1 345 
0 0 0 0 0 0 3 334 335 338 
9 0 0 7 0 0 2 340 337 
10 0 0 5 0 0 1 336 
7 0 0 5 0 0 2 343 339 
10 0 0 7 0 0 2 343 342 
8 0 0 10 0 0 2 343 342 
9 0 0 10 0 0 1 341 
1 0 0 6 0 0 1 341 
8 0 0 6 0 0 1 342 
10 0 0 9 0 0 1 344 
10 0 0 10 0 0 1 344 
0 0 0 0 0 0 1 345 
0 0 0 0 0 0 0 
